p edge 140 560
e 1 8
e 1 23
e 1 54
e 1 103
e 2 55
e 2 65
e 2 109
e 2 116
e 3 4
e 3 59
e 3 70
e 3 136
e 4 26
e 4 34
e 4 59
e 4 130
e 5 29
e 5 33
e 5 38
e 5 72
e 6 8
e 6 39
e 6 85
e 6 129
e 7 9
e 7 11
e 7 18
e 7 123
e 8 49
e 8 52
e 8 84
e 8 91
e 9 13
e 9 76
e 9 105
e 9 113
e 10 28
e 10 100
e 10 109
e 10 131
e 11 4
e 11 29
e 11 48
e 11 108
e 12 49
e 12 82
e 12 114
e 12 124
e 13 43
e 13 44
e 13 70
e 13 128
e 14 25
e 14 77
e 14 89
e 14 93
e 15 8
e 15 81
e 15 96
e 15 126
e 16 24
e 16 36
e 16 50
e 16 52
e 17 32
e 17 34
e 17 42
e 17 55
e 18 65
e 18 69
e 18 94
e 18 96
e 19 28
e 19 31
e 19 35
e 19 67
e 20 11
e 20 40
e 20 68
e 20 69
e 21 14
e 21 31
e 21 80
e 21 109
e 22 63
e 22 125
e 22 127
e 22 138
e 23 54
e 23 100
e 23 132
e 23 137
e 24 3
e 24 21
e 24 80
e 24 116
e 25 55
e 25 87
e 25 91
e 25 116
e 26 40
e 26 77
e 26 132
e 26 134
e 27 61
e 27 85
e 27 96
e 27 112
e 28 4
e 28 39
e 28 125
e 28 131
e 29 12
e 29 91
e 29 105
e 29 111
e 30 13
e 30 24
e 30 45
e 30 64
e 31 3
e 31 14
e 31 23
e 31 46
e 32 12
e 32 49
e 32 76
e 32 129
e 33 23
e 33 46
e 33 79
e 33 88
e 34 30
e 34 32
e 34 42
e 34 103
e 35 37
e 35 53
e 35 62
e 35 129
e 36 1
e 36 49
e 36 122
e 36 140
e 37 42
e 37 71
e 37 88
e 37 113
e 38 33
e 38 39
e 38 110
e 38 128
e 39 62
e 39 71
e 39 98
e 39 104
e 40 47
e 40 58
e 40 110
e 40 125
e 41 4
e 41 91
e 41 124
e 41 139
e 42 52
e 42 97
e 42 116
e 42 127
e 43 63
e 43 87
e 43 109
e 43 112
e 44 1
e 44 10
e 44 49
e 44 95
e 45 43
e 45 83
e 45 113
e 45 136
e 46 2
e 46 31
e 46 114
e 46 132
e 47 24
e 47 75
e 47 91
e 47 98
e 48 78
e 48 85
e 48 135
e 48 135
e 49 54
e 49 65
e 49 78
e 49 128
e 50 35
e 50 49
e 50 106
e 50 123
e 51 38
e 51 46
e 51 64
e 51 86
e 52 44
e 52 61
e 52 102
e 52 119
e 53 43
e 53 44
e 53 70
e 53 124
e 54 1
e 54 14
e 54 92
e 54 136
e 55 29
e 55 34
e 55 38
e 55 61
e 56 33
e 56 37
e 56 80
e 56 139
e 57 18
e 57 76
e 57 104
e 57 140
e 58 30
e 58 53
e 58 115
e 58 134
e 59 40
e 59 71
e 59 71
e 59 90
e 60 25
e 60 53
e 60 100
e 60 136
e 61 5
e 61 30
e 61 52
e 61 138
e 62 61
e 62 71
e 62 80
e 62 118
e 63 41
e 63 66
e 63 92
e 63 115
e 64 73
e 64 98
e 64 115
e 64 122
e 65 35
e 65 73
e 65 74
e 65 123
e 66 47
e 66 62
e 66 79
e 66 119
e 67 15
e 67 37
e 67 97
e 67 138
e 68 8
e 68 26
e 68 83
e 68 89
e 69 20
e 69 26
e 69 85
e 69 128
e 70 21
e 70 90
e 70 100
e 70 123
e 71 2
e 71 63
e 71 104
e 71 114
e 72 12
e 72 14
e 72 36
e 72 117
e 73 9
e 73 10
e 73 54
e 73 94
e 74 19
e 74 20
e 74 47
e 74 136
e 75 30
e 75 89
e 75 91
e 75 120
e 76 85
e 76 109
e 76 110
e 76 127
e 77 7
e 77 13
e 77 55
e 77 124
e 78 4
e 78 19
e 78 22
e 78 53
e 79 3
e 79 3
e 79 41
e 79 56
e 80 7
e 80 89
e 80 102
e 80 130
e 81 3
e 81 11
e 81 78
e 81 134
e 82 24
e 82 26
e 82 113
e 82 137
e 83 34
e 83 89
e 83 119
e 83 135
e 84 9
e 84 101
e 84 130
e 84 135
e 85 32
e 85 67
e 85 112
e 85 126
e 86 56
e 86 95
e 86 111
e 86 140
e 87 62
e 87 76
e 87 91
e 87 121
e 88 106
e 88 112
e 88 113
e 88 117
e 89 22
e 89 24
e 89 120
e 89 132
e 90 25
e 90 82
e 90 122
e 90 134
e 91 27
e 91 72
e 91 108
e 91 132
e 92 15
e 92 27
e 92 45
e 92 53
e 93 29
e 93 43
e 93 80
e 93 115
e 94 35
e 94 38
e 94 52
e 94 121
e 95 35
e 95 37
e 95 94
e 95 119
e 96 28
e 96 68
e 96 85
e 96 90
e 97 24
e 97 35
e 97 79
e 97 86
e 98 12
e 98 18
e 98 26
e 98 107
e 99 3
e 99 3
e 99 53
e 99 70
e 100 8
e 100 36
e 100 77
e 100 99
e 101 17
e 101 104
e 101 126
e 101 127
e 102 8
e 102 17
e 102 28
e 102 43
e 103 34
e 103 51
e 103 82
e 103 84
e 104 5
e 104 20
e 104 63
e 104 118
e 105 13
e 105 26
e 105 39
e 105 77
e 106 36
e 106 93
e 106 129
e 106 131
e 107 12
e 107 43
e 107 75
e 107 102
e 108 21
e 108 35
e 108 68
e 108 122
e 109 11
e 109 49
e 109 71
e 109 73
e 110 48
e 110 56
e 110 64
e 110 106
e 111 6
e 111 55
e 111 123
e 111 140
e 112 2
e 112 19
e 112 97
e 112 115
e 113 2
e 113 10
e 113 40
e 113 48
e 114 30
e 114 67
e 114 96
e 114 115
e 115 55
e 115 79
e 115 100
e 115 133
e 116 20
e 116 57
e 116 69
e 116 139
e 117 16
e 117 27
e 117 62
e 117 127
e 118 2
e 118 10
e 118 16
e 118 137
e 119 19
e 119 44
e 119 83
e 119 84
e 120 61
e 120 82
e 120 87
e 120 92
e 121 19
e 121 43
e 121 61
e 121 94
e 122 5
e 122 57
e 122 68
e 122 73
e 123 4
e 123 42
e 123 82
e 123 104
e 124 37
e 124 42
e 124 81
e 124 128
e 125 1
e 125 121
e 125 122
e 125 136
e 126 6
e 126 37
e 126 61
e 126 109
e 127 4
e 127 26
e 127 68
e 127 88
e 128 13
e 128 60
e 128 96
e 128 129
e 129 2
e 129 39
e 129 68
e 129 115
e 130 31
e 130 68
e 130 85
e 130 122
e 131 6
e 131 21
e 131 62
e 131 88
e 132 11
e 132 60
e 132 101
e 132 134
e 133 47
e 133 54
e 133 56
e 133 128
e 134 41
e 134 90
e 134 91
e 134 140
e 135 5
e 135 62
e 135 97
e 135 121
e 136 17
e 136 66
e 136 115
e 136 125
e 137 22
e 137 57
e 137 84
e 137 118
e 138 17
e 138 45
e 138 85
e 138 131
e 139 70
e 139 79
e 139 86
e 139 112
e 140 40
e 140 43
e 140 98
e 140 101
